sat
(:added-eqs                       22280
 :arith-eq-adapter                795
 :arith-bound-propagations-lp     1049
 :arith-branch                    4
 :arith-conflicts                 1743
 :arith-cube-calls                2
 :arith-diseq                     11963
 :arith-fixed-eqs                 2597
 :arith-gcd-calls                 139
 :arith-grobner-calls             386
 :arith-grobner-conflicts         87
 :arith-horner-calls              104
 :arith-horner-conflicts          1
 :arith-horner-cross-nested-forms 8835
 :arith-lower                     16530
 :arith-make-feasible             9352
 :arith-max-columns               781
 :arith-max-rows                  362
 :arith-nla-add-bounds            101
 :arith-nla-lemmas                877
 :arith-nla-propagate-bounds      538
 :arith-nla-propagate-eq          9125
 :arith-nra-calls                 50
 :arith-offset-eqs                2838
 :arith-patches                   139
 :arith-patches-success           133
 :arith-upper                     21342
 :binary-propagations             61732
 :conflicts                       447
 :decisions                       118728
 :del-clause                      2322
 :elim-unconstrained              94
 :final-checks                    786
 :max-memory                      28.24
 :memory                          19.20
 :minimized-lits                  2028
 :mk-bool-var                     5394
 :mk-clause                       3880
 :mk-clause-binary                7405
 :nlsat-conflicts                 4549
 :nlsat-decisions                 87
 :nlsat-propagations              214989
 :nlsat-stages                    100536
 :num-allocs                      820757506
 :num-checks                      1
 :propagations                    98445
 :restarts                        4
 :rlimit-count                    3916104
 :time                            1.34
 :total-time                      1.35)
